Route #1: 9 54 58 2 63 47 46 8 16 60 41
Route #2: 42 32 24 61 13 52 56 10
Route #3: 15 11 57 12 22 18
Route #4: 25 29 6
Route #5: 17 1 27 14 28 43 38
Route #6: 45 30 35 26 21 7 44 39 40 36 50 31 37
Route #7: 33 62 48
Route #8: 20 19 51 3 53
Route #9: 23 55 49 59 5 4 34
Cost 1404
Time 0.169708
